p tw 101 110
1 2
2 14
3 5
5 6
6 7
7 8
8 9
9 10
10 11
11 12
12 13
13 15
14 25
15 16
16 17
17 18
18 19
19 20
19 97
20 21
21 22
21 97
22 23
23 24
24 26
25 36
26 27
27 40
27 28
27 43
27 54
27 68
28 29
29 30
30 31
31 32
32 33
33 34
34 35
35 37
36 47
37 38
38 39
39 101
40 41
41 42
42 101
43 44
44 45
45 46
46 48
46 50
47 58
48 49
49 52
50 51
51 52
52 53
53 101
54 55
55 56
56 57
57 59
58 69
59 60
59 63
60 61
61 62
62 66
63 64
64 65
65 66
66 67
67 101
68 70
69 80
70 71
71 72
72 73
73 74
74 75
75 76
76 77
76 78
77 101
78 79
79 81
80 91
80 3
81 82
82 83
83 84
84 85
85 86
86 87
87 88
88 89
89 90
90 92
91 101
92 93
93 94
94 95
95 96
96 101
97 98
98 99
99 100
100 101
101 4
